1255469
0,100,97,34,4,44,89,23,108,9,65,76,8,36,25,40,37,71,56,74,85,26,68,69,13,38,30,46,70,98,75,49,17,6,87,64,11,35,27,7,39,67,54,77,32,107,105,59,41,72,18,61,86,95,92,12,104,96,48,10,90,88,103,57,53,101,21,63,22,14,99,52,16,79,20,47,73,66,78,3,91,55,102,29,5,60,84,42,94,31,50,83,58,1,80,45,93,106,15,28,24,43,19,62,2,82,51,33,81,0